c description: Random 3-CNF over 17 variables and 72 clauses
c generator: CNFgen (0.9.2)
c copyright: (C) 2012-2022 Massimo Lauria <massimo.lauria@uniroma1.it>
c url: https://massimolauria.net/cnfgen
c command line: cnfgen --output CNF_4.28/17_bit_72_263.cnf randkcnf 3 17 72
c
p cnf 17 72
5 -13 -15 0
2 -14 -16 0
-4 10 15 0
-2 7 10 0
-1 14 17 0
1 -7 8 0
3 16 17 0
-1 10 -16 0
-5 7 9 0
-6 13 17 0
2 -12 -14 0
3 -8 11 0
2 -10 -12 0
5 11 -13 0
-1 5 11 0
-6 10 15 0
-10 -15 17 0
7 -9 -15 0
2 7 -10 0
6 10 16 0
12 -14 17 0
-6 -14 15 0
-7 -8 12 0
-1 6 -16 0
6 7 -15 0
7 8 15 0
-2 -9 -16 0
-6 -14 -16 0
4 -8 -10 0
-5 -12 -16 0
-4 5 12 0
9 11 -16 0
7 10 17 0
1 4 17 0
6 -8 15 0
9 14 -15 0
-6 8 13 0
-8 -16 -17 0
12 -13 17 0
7 8 17 0
6 8 16 0
-5 14 15 0
-7 9 -15 0
8 -9 -10 0
7 -9 11 0
-9 14 15 0
2 7 15 0
11 13 -16 0
-1 2 3 0
6 -12 13 0
5 10 14 0
8 -9 -16 0
-6 7 17 0
-2 10 -17 0
1 5 -7 0
9 11 16 0
1 10 16 0
-3 13 15 0
-2 -7 9 0
1 11 16 0
-5 6 -14 0
2 10 -11 0
-5 16 17 0
3 -12 -16 0
-3 -6 17 0
8 -14 16 0
4 -8 13 0
-1 4 17 0
-7 -9 11 0
-8 -12 -14 0
-4 -10 13 0
-3 4 9 0
